p cnf 73 46
53 -57 0
53 -60 0
53 -58 0
53 -61 0
-53 54 57 58 60 61 0
2 -65 0
-10 49 51 56 0
10 50 52 59 0
9 51 52 55 0
49 50 51 52 62 0
-10 -59 0
10 -56 0
-9 -55 0
11 63 64 65 0
-9 10 50 60 0
-9 -10 49 57 0
9 10 52 61 0
9 -10 51 58 0
64 -66 0
-63 -66 0
-64 -65 0
-11 -65 0
-63 -65 0
-50 -60 0
-50 -59 0
-49 -57 0
-49 -56 0
-50 -62 0
-49 -62 0
-52 -61 0
-52 -59 0
-51 -58 0
-51 -56 0
-52 -55 0
-51 -55 0
-52 -62 0
-51 -62 0
-9 -61 0
9 -60 0
-9 -58 0
9 -57 0
-10 -61 0
-10 -60 0
10 -58 0
10 -57 0
53 -54 0
